O  Ti
 1.0000000000000000
     9.1880000000000006    0.0000000000000000    0.0000000000000000
     0.5500000000000000    9.1880000000000006    0.0000000000000000
     0.0000000000000000    0.0000000000000000    6.2730800000000002
 O   Ti 
  32  16
Cartesian
  4.2461406545159850  5.8472269985299548  4.2867901997462479
  1.5961080793622031  8.2690420998385843  4.4582521941869313
  5.7778621366959175  8.4491422740507005  4.5572275003645419
  6.0160850486479784  1.5909963267147655  0.2053640626896872
  7.8838643930670766  3.5413462956747641 -0.2340361232013303
  6.1729838783417881  3.4596394536001402  1.8948647103580818
  8.1074603179019054  1.0274268476881359  1.7754701205114420
  6.1983902347106428  1.5530940556631014  3.7572214522820229
  3.0394274877877470  7.6416685733196896  3.2526530483191558
  8.1781250866841138  3.2246107215193431  3.1404443343787376
  8.7324364996751100  0.9622719827180227  4.5080676736463348
  6.4448584059557543  5.9219901580032861 -0.3642428726874142
  8.3504417953912480  7.2147851784613550 -0.1635349130159105
  6.3190962161003075  8.4585252286514212  1.0690708101424242
  8.4547588321426481  5.2782413304961704  1.7715392631045364
  6.2364749761885170  5.6738367123053806  3.4277872085489949
  8.3272725928309139  7.3599324878398109  3.3357857375548501
  5.7114240898507092  3.7719358161689578  4.5755872682961840
  1.9934105704690479  5.8611244614053861  3.2327773606102488
  8.3645908347398610  5.2158263908560079  4.3309537905675528
  3.4277809132557109  3.3721535091000852  3.0279083143486045
  3.6640551870459466  5.4832065504589540  1.4882477497523376
  1.2407923635076485  8.6208355221576110  1.3274336747222260
  3.7577052283981001  7.6011699118745177 -0.0323315189467964
  1.3453847915251886  1.3535989163026327  2.8658576318527551
  1.4536267138441856  1.8449203661936013 -0.0212925148281814
  1.7287640649620684  5.8631688174366801 -0.2608762588557820
  3.2677872380250621  0.6851836188499981  1.7515241012589515
  0.8059747265477096  3.4319569609854055  5.0863557914615853
  3.7075969304410243  0.7331503132773619  4.8751258400346140
  3.4753786653059202  3.1418502560517809 -0.1403474805065935
  1.1123263131869368  3.9292758912434165  1.3295963277005054
  4.9383346427104362  4.8890001952577427  3.2859182472250796
  7.4342367393114239  6.6448415454756384  4.5845391179676458
  2.3090118031385285  2.2493197737369082  1.6243423461488868
 -0.2200457965049091  0.0755618037932096  3.4766666578213141
  7.1652604180225090  6.6880549944811643  1.3695238827286924
  0.1687525142099186  4.7567069523112737  3.2710154035845309
  2.5863178079922386  1.8469122599385117  4.7783927025341102
  2.8176965026685346  7.2854432504799851  4.5543878283386023
  6.9228099354825803  2.3476566985213574  4.7477617104122327
  4.4575685252904318  0.1792703580056033  2.9385311932005584
  0.1039772318025818  4.5027802813490867 -0.2520410625757782
  2.7810089099060535  6.8911307417871015  1.8803593667991447
  6.6958061059052243  2.3605843721709840  1.5892853874143007
  4.6077094996332280  0.1055994590498927  0.0835140237248658
  4.6997855723890254  4.7852233173094492  0.0817037756761848
 -0.0701477711237887 -0.3526557222672921 -0.3377479315984848
