O  Ti
 1.0000000000000000
     9.1880000000000006    0.0000000000000000    0.0000000000000000
     0.0000000000000000    9.1880000000000006    0.0000000000000000
     0.0000000000000000    0.0000000000000000    5.9180000000000001
 O   Ti 
  32  16
Cartesian
  3.6995482000000002  5.4884518000000000  4.4385000000000003
  0.8944518000000000  8.2935482000000000  4.4385000000000003
  5.4884518000000000  8.2935482000000000  4.4385000000000003
  5.9965482000000003  1.4025482000000002  0.0000000000000000
  7.7854518000000006  3.1914518000000003  0.0000000000000000
  5.4884518000000000  3.6995482000000002  1.4795000000000000
  8.2935482000000000  0.8944518000000000  1.4795000000000000
  5.9965482000000003  1.4025482000000002  2.9590000000000001
  3.1914518000000003  7.7854518000000006  2.9590000000000001
  7.7854518000000006  3.1914518000000003  2.9590000000000001
  8.2935482000000000  0.8944518000000000  4.4385000000000003
  5.9965482000000003  5.9965482000000003  0.0000000000000000
  7.7854518000000006  7.7854518000000006  0.0000000000000000
  5.4884518000000000  8.2935482000000000  1.4795000000000000
  8.2935482000000000  5.4884518000000000  1.4795000000000000
  5.9965482000000003  5.9965482000000003  2.9590000000000001
  7.7854518000000006  7.7854518000000006  2.9590000000000001
  5.4884518000000000  3.6995482000000002  4.4385000000000003
  1.4025482000000002  5.9965482000000003  2.9590000000000001
  8.2935482000000000  5.4884518000000000  4.4385000000000003
  3.1914518000000003  3.1914518000000003  2.9590000000000001
  3.6995482000000002  5.4884518000000000  1.4795000000000000
  0.8944518000000000  8.2935482000000000  1.4795000000000000
  3.1914518000000003  7.7854518000000006  0.0000000000000000
  1.4025482000000002  1.4025482000000002  2.9590000000000001
  1.4025482000000002  1.4025482000000002  0.0000000000000000
  1.4025482000000002  5.9965482000000003  0.0000000000000000
  3.6995482000000002  0.8944518000000000  1.4795000000000000
  0.8944518000000000  3.6995482000000002  4.4385000000000003
  3.6995482000000002  0.8944518000000000  4.4385000000000003
  3.1914518000000003  3.1914518000000003  0.0000000000000000
  0.8944518000000000  3.6995482000000002  1.4795000000000000
  4.5940000000000003  4.5940000000000003  2.9590000000000001
  6.8910000000000000  6.8910000000000000  4.4385000000000003
  2.2970000000000002  2.2970000000000002  1.4795000000000000
  0.0000000000000000  0.0000000000000000  2.9590000000000001
  6.8910000000000000  6.8910000000000000  1.4795000000000000
  0.0000000000000000  4.5940000000000003  2.9590000000000001
  2.2970000000000002  2.2970000000000002  4.4385000000000003
  2.2970000000000002  6.8910000000000000  4.4385000000000003
  6.8910000000000000  2.2970000000000002  4.4385000000000003
  4.5940000000000003  0.0000000000000000  2.9590000000000001
  0.0000000000000000  4.5940000000000003  0.0000000000000000
  2.2970000000000002  6.8910000000000000  1.4795000000000000
  6.8910000000000000  2.2970000000000002  1.4795000000000000
  4.5940000000000003  0.0000000000000000  0.0000000000000000
  4.5940000000000003  4.5940000000000003  0.0000000000000000
  0.0000000000000000  0.0000000000000000  0.0000000000000000
