Mg O 
 1.0000000000000000
     0.0000000000000000    4.2310499999999998    4.2310499999999998
     4.2310499999999998    0.0000000000000000    4.2310499999999998
     4.2310499999999998    4.2310499999999998    0.0000000000000000
 Mg  O  
   8   8
Cartesian
  0.0210984241801405 -0.0034500403416045 -0.0058438554945870
  2.1090532498914492  2.1193287561812140  0.0050778716380411
  2.1238425686610292  0.0067679776429614  2.0997800849720458
  4.2306752344330771  2.1072826336727690  2.1287382941641440
  0.0075987626592706  2.1164113284382426  2.1243561925278556
  2.1130602336931141  4.2251828690926869  2.1132845495930539
  2.1190989461236165  2.1324424197009750  4.2123948374347151
  4.2289706176078408  4.2321575708016477  4.2439247549919958
  2.0835259781753064 -0.0000999126302376 -0.0038547542469974
  4.2181988280557867  2.1048369495803367 -0.0057373459217617
  4.2175491283451079  0.0088862589382280  2.1345150869216374
  6.3428415057551177  2.1242775718310760  2.1342068038984632
  2.1077755407672534  2.1133771963057320  2.1086031080135128
  4.2264607308138897  4.2321230702819861  2.1162928802367826
  4.2466751601327202  2.1126637596242928  4.2161879047483763
  6.3337716885538402  4.2336712193881443  4.2324709032225014
