Mg O 
 1.0000000000000000
     0.0000000000000000    4.2100000000000000    4.2100000000000000
     4.2100000000000000    0.0000000000000000    4.2100000000000000
     4.2100000000000000    4.2100000000000000    0.0000000000000000
 Mg  O  
   8   8
Cartesian
  0.0000000000000000  0.0000000000000000  0.0000000000000000
  2.1050000000000000  2.1050000000000000  0.0000000000000000
  2.1050000000000000  0.0000000000000000  2.1050000000000000
  4.2100000000000000  2.1050000000000000  2.1050000000000000
  0.0000000000000000  2.1050000000000000  2.1050000000000000
  2.1050000000000000  4.2100000000000000  2.1050000000000000
  2.1050000000000000  2.1050000000000000  4.2100000000000000
  4.2100000000000000  4.2100000000000000  4.2100000000000000
  2.1050000000000000  0.0000000000000000  0.0000000000000000
  4.2100000000000000  2.1050000000000000  0.0000000000000000
  4.2100000000000000  0.0000000000000000  2.1050000000000000
  6.3149999999999995  2.1050000000000000  2.1050000000000000
  2.1050000000000000  2.1050000000000000  2.1050000000000000
  4.2100000000000000  4.2100000000000000  2.1050000000000000
  4.2100000000000000  2.1050000000000000  4.2100000000000000
  6.3149999999999995  4.2100000000000000  4.2100000000000000
