O  Sr Ti
 1.0000000000000000
     7.8099999999999996    0.0000000000000000    0.0000000000000000
     0.0000000000000000    7.8099999999999996    0.0000000000000000
     0.0000000000000000    0.0000000000000000    8.0052499999999984
 O   Sr  Ti 
  24   8   8
Cartesian
  1.7724999999999997  3.9049999999999994  6.0039374999999984
  5.8574999999999990  5.6774999999999993  4.0026249999999983
  6.0374999999999988  3.9049999999999994  2.0013124999999992
  4.0849999999999991  5.8574999999999990  2.0013124999999992
  5.8574999999999990  6.0374999999999988  0.0000000000000000
  5.6774999999999993 -0.0000000000000000  6.0039374999999984
  3.7249999999999992  1.9524999999999997  6.0039374999999984
  5.8574999999999990  1.7724999999999997  4.0026249999999983
  6.0374999999999988  0.0000000000000001  2.0013124999999992
  4.0849999999999991  1.9524999999999997  2.0013124999999992
  5.8574999999999990  2.1324999999999998  0.0000000000000000
  3.7249999999999992  5.8574999999999990  6.0039374999999984
 -0.1800000000000000  5.8574999999999990  6.0039374999999984
  1.9524999999999997  5.6774999999999993  4.0026249999999983
  5.6774999999999993  3.9049999999999994  6.0039374999999984
  1.9524999999999997  1.7724999999999997  4.0026249999999983
  0.1800000000000000  5.8574999999999990  2.0013124999999992
  1.9524999999999997  6.0374999999999988  0.0000000000000000
  1.9524999999999997  2.1324999999999998  0.0000000000000000
  0.1800000000000000  1.9524999999999997  2.0013124999999992
  2.1324999999999998  0.0000000000000001  2.0013124999999992
  1.7724999999999997 -0.0000000000000000  6.0039374999999984
 -0.1800000000000000  1.9524999999999997  6.0039374999999984
  2.1324999999999998  3.9049999999999994  2.0013124999999992
  3.9049999999999994  3.9049999999999994  4.0026249999999983
  3.9049999999999994  3.9049999999999994  0.0000000000000000
  0.0000000000000000  0.0000000000000000  4.0026249999999983
  0.0000000000000000  3.9049999999999994  4.0026249999999983
  3.9049999999999994  0.0000000000000000  4.0026249999999983
  0.0000000000000000  3.9049999999999994  0.0000000000000000
  3.9049999999999994  0.0000000000000000  0.0000000000000000
  0.0000000000000000  0.0000000000000000  0.0000000000000000
  1.9524999999999997  1.9524999999999997  6.0039374999999984
  5.8574999999999990  5.8574999999999990  2.0013124999999992
  5.8574999999999990  1.9524999999999997  2.0013124999999992
  1.9524999999999997  5.8574999999999990  2.0013124999999992
  1.9524999999999997  5.8574999999999990  6.0039374999999984
  5.8574999999999990  5.8574999999999990  6.0039374999999984
  1.9524999999999997  1.9524999999999997  2.0013124999999992
  5.8574999999999990  1.9524999999999997  6.0039374999999984
