O  Sr Ti
 1.0000000000000000
     7.8099999999999996    0.0000000000000000    0.0000000000000000
     0.0000000000000000    7.8099999999999996    0.0000000000000000
     0.0000000000000000    0.0000000000000000    7.8099999999999996
 O   Sr  Ti 
  24   8   8
Cartesian
  1.9524999999999999  3.9049999999999998  5.8574999999999999
  5.8574999999999999  5.8574999999999999  3.9049999999999998
  5.8574999999999999  3.9049999999999998  1.9524999999999999
  3.9049999999999998  5.8574999999999999  1.9524999999999999
  5.8574999999999999  5.8574999999999999  0.0000000000000000
  5.8574999999999999  0.0000000000000000  5.8574999999999999
  3.9049999999999998  1.9524999999999999  5.8574999999999999
  5.8574999999999999  1.9524999999999999  3.9049999999999998
  5.8574999999999999  0.0000000000000000  1.9524999999999999
  3.9049999999999998  1.9524999999999999  1.9524999999999999
  5.8574999999999999  1.9524999999999999  0.0000000000000000
  3.9049999999999998  5.8574999999999999  5.8574999999999999
  0.0000000000000000  5.8574999999999999  5.8574999999999999
  1.9524999999999999  5.8574999999999999  3.9049999999999998
  5.8574999999999999  3.9049999999999998  5.8574999999999999
  1.9524999999999999  1.9524999999999999  3.9049999999999998
  0.0000000000000000  5.8574999999999999  1.9524999999999999
  1.9524999999999999  5.8574999999999999  0.0000000000000000
  1.9524999999999999  1.9524999999999999  0.0000000000000000
  0.0000000000000000  1.9524999999999999  1.9524999999999999
  1.9524999999999999  0.0000000000000000  1.9524999999999999
  1.9524999999999999  0.0000000000000000  5.8574999999999999
  0.0000000000000000  1.9524999999999999  5.8574999999999999
  1.9524999999999999  3.9049999999999998  1.9524999999999999
  3.9049999999999998  3.9049999999999998  3.9049999999999998
  3.9049999999999998  3.9049999999999998  0.0000000000000000
  0.0000000000000000  0.0000000000000000  3.9049999999999998
  0.0000000000000000  3.9049999999999998  3.9049999999999998
  3.9049999999999998  0.0000000000000000  3.9049999999999998
  0.0000000000000000  3.9049999999999998  0.0000000000000000
  3.9049999999999998  0.0000000000000000  0.0000000000000000
  0.0000000000000000  0.0000000000000000  0.0000000000000000
  1.9524999999999999  1.9524999999999999  5.8574999999999999
  5.8574999999999999  5.8574999999999999  1.9524999999999999
  5.8574999999999999  1.9524999999999999  1.9524999999999999
  1.9524999999999999  5.8574999999999999  1.9524999999999999
  1.9524999999999999  5.8574999999999999  5.8574999999999999
  5.8574999999999999  5.8574999999999999  5.8574999999999999
  1.9524999999999999  1.9524999999999999  1.9524999999999999
  5.8574999999999999  1.9524999999999999  5.8574999999999999
