Mg O 
 1.0000000000000000
     0.0000000000000000    4.3350000000000000    4.3350000000000000
     4.3350000000000000    0.0000000000000000    4.3350000000000000
     4.3350000000000000    4.3350000000000000    0.0000000000000000
 Mg  O  
   8   8
Cartesian
  0.0405318748857166 -0.0112823669755687  0.0528513847090165
  2.2963637657454030  2.2301226738988777 -0.0383091098922921
  2.1872441213597882 -0.1561236679640763  2.0267467048669365
  4.2609052354374697  2.0522560179710401  2.2870969395439991
 -0.0444216303212549  2.1765512833203253  2.0735789240823399
  2.1184007404420813  4.4861458998559298  2.1663986264613846
  2.1845432693523881  2.0075909178914104  4.2266200184098883
  4.3255631001571198  4.3104299384399143  4.2143526055860177
  2.2917792362828950 -0.0191069153774242 -0.0191055756870531
  4.3792728995566144  2.1296851162665029 -0.0380035478913330
  4.2891173376139369 -0.0826470194192890  2.1931425823397745
  6.4840766538802992  2.1730103015025346  2.0512405480049818
  2.1981569582970066  2.1184878829026257  2.1436977900168688
  4.2486907881971989  4.4021196648276195  2.0678791581623646
  4.3510638768469212  2.2277588729276254  4.3489836517451010
  6.4437607125949921  4.2974118762896811  4.4212611736594640
