Mg O 
 1.0000000000000000
     0.0000000000000000    4.2500000000000000    4.2500000000000000
     4.2500000000000000    0.0000000000000000    4.2500000000000000
     4.2500000000000000    4.2500000000000000    0.0000000000000000
 Mg  O  
   8   8
Cartesian
  0.0000000000000000  0.0000000000000000  0.0000000000000000
  2.1250000000000000  2.1250000000000000  0.0000000000000000
  2.1250000000000000  0.0000000000000000  2.1250000000000000
  4.2500000000000000  2.1250000000000000  2.1250000000000000
  0.0000000000000000  2.1250000000000000  2.1250000000000000
  2.1250000000000000  4.2500000000000000  2.1250000000000000
  2.1250000000000000  2.1250000000000000  4.2500000000000000
  4.2500000000000000  4.2500000000000000  4.2500000000000000
  2.1250000000000000  0.0000000000000000  0.0000000000000000
  4.2500000000000000  2.1250000000000000  0.0000000000000000
  4.2500000000000000  0.0000000000000000  2.1250000000000000
  6.3750000000000000  2.1250000000000000  2.1250000000000000
  2.1250000000000000  2.1250000000000000  2.1250000000000000
  4.2500000000000000  4.2500000000000000  2.1250000000000000
  4.2500000000000000  2.1250000000000000  4.2500000000000000
  6.3750000000000000  4.2500000000000000  4.2500000000000000
