Si
 1.0000000000000000
     0.0000000000000000    4.2354000000000003    4.2354000000000003
     4.2354000000000003    0.0000000000000000    4.2354000000000003
     4.2354000000000003    4.2354000000000003    0.0000000000000000
 Si 
  16
Cartesian
 -0.0091949919865191 -0.1463350652811679  0.1081791679198325
  1.0349174831802430  1.0097370863761570  0.9586227989705108
  2.2095821502998589  2.0073367898876735  0.0626493456316078
  3.1203986219436324  3.1794355118320050  1.0357732812294604
  2.1764752214508771  0.0752317579242794  2.0118497445572650
  3.2821472413826629  1.1336250265534280  3.2830176588068052
  4.3874129587848012  1.9688397064060610  2.3036989891802615
  5.1343886972860036  3.1119426387286460  3.2102825001528310
  0.1046728725333616  2.1806143340378803  2.1540059094718105
  1.1144249697008317  3.0676950467996758  3.1789194771837312
  2.3676176640678075  3.9863969607031211  2.0942137612584339
  3.1667936540390187  5.2055970658475212  3.1628786762302044
  2.1278978926786181  2.0926070463533386  4.2275187695574381
  3.0680335833761387  3.2360428450766356  5.2303591927625810
  4.1246163141794439  4.4460145756316063  4.1786612229728899
  5.2462550207113532  5.1019270144386342  5.3342088542182946
