Si
 1.0000000000000000
     0.0000000000000000    5.4299999999999997    5.4299999999999997
     5.4299999999999997    0.0000000000000000    5.4299999999999997
     5.4299999999999997    5.4299999999999997    0.0000000000000000
 Si 
  16
Cartesian
  0.0000000000000000  0.0000000000000000  0.0000000000000000
  1.3574999999999999  1.3574999999999999  1.3574999999999999
  2.7149999999999999  2.7149999999999999  0.0000000000000000
  4.0724999999999998  4.0724999999999998  1.3574999999999999
  2.7149999999999999  0.0000000000000000  2.7149999999999999
  4.0724999999999998  1.3574999999999999  4.0724999999999998
  5.4299999999999997  2.7149999999999999  2.7149999999999999
  6.7874999999999996  4.0724999999999998  4.0724999999999998
  0.0000000000000000  2.7149999999999999  2.7149999999999999
  1.3574999999999999  4.0724999999999998  4.0724999999999998
  2.7149999999999999  5.4299999999999997  2.7149999999999999
  4.0724999999999998  6.7874999999999996  4.0724999999999998
  2.7149999999999999  2.7149999999999999  5.4299999999999997
  4.0724999999999998  4.0724999999999998  6.7874999999999996
  5.4299999999999997  5.4299999999999997  5.4299999999999997
  6.7874999999999996  6.7874999999999996  6.7874999999999996
